Gurobi 12.0.3:   lim:time = 14400

  mip:bestbound = 1

Set parameter LogToConsole to value 1

  tech:outlev = 1

Set parameter Cuts to value 3

  cut:cuts = 3

Set parameter Presolve to value 2

  pre:solve = 2

Set parameter MIPFocus to value 2

  mip:focus = 2

Set parameter Symmetry to value 2

  mip:symmetry = 2

Set parameter InfUnbdInfo to value 1

Gurobi Optimizer version 12.0.3 build v12.0.3rc0 (win64 - Windows 11.0 (26100.2))



CPU model: 12th Gen Intel(R) Core(TM) i7-12700, instruction set [SSE2|AVX|AVX2]

Thread count: 12 physical cores, 20 logical processors, using up to 20 threads



Non-default parameters:

TimeLimit  14400

MIPFocus  2

Symmetry  2

Cuts  3

InfUnbdInfo  1

Presolve  2



Optimize a model with 363 rows, 442 columns and 2613 nonzeros

Model fingerprint: 0xdef317ad

Model has 2 quadratic objective terms

Model has 7 quadratic constraints

Variable types: 29 continuous, 413 integer (0 binary)

Coefficient statistics:

  Matrix range     [1e+00, 1e+05]

  QMatrix range    [1e+00, 1e+00]

  QLMatrix range   [1e+00, 2e+01]

  Objective range  [7e+00, 1e+02]

  QObjective range [3e+00, 3e+00]

  Bounds range     [1e+00, 1e+02]

  RHS range        [1e+00, 1e+05]

  QRHS range       [1e+02, 1e+02]

Presolve removed 23 rows and 59 columns

Presolve time: 0.03s

Presolved: 545 rows, 582 columns, 3600 nonzeros

Variable types: 72 continuous, 510 integer (421 binary)

Found heuristic solution: objective 385.2800000

Root relaxation presolve removed 65 rows and 1 columns

Root relaxation presolved: 417 rows, 571 columns, 3601 nonzeros





Root relaxation: objective 1.339204e+02, 67 iterations, 0.00 seconds (0.00 work units)



    Nodes    |    Current Node    |     Objective Bounds      |     Work

 Expl Unexpl |  Obj  Depth IntInf | Incumbent    BestBd   Gap | It/Node Time



     0     0  133.92044    0   39  385.28000  133.92044  65.2%     -    0s

H    0     0                     373.3200000  133.92044  64.1%     -    0s

H    0     0                     366.8100000  203.30333  44.6%     -    0s

     0     0  218.29666    0   33  366.81000  218.29666  40.5%     -    0s

     0     0  218.29666    0   21  366.81000  218.29666  40.5%     -    0s

     0     0  218.29666    0   37  366.81000  218.29666  40.5%     -    0s

     0     0  218.29666    0   33  366.81000  218.29666  40.5%     -    0s

H    0     0                     343.6000000  220.53000  35.8%     -    0s

     0     0  220.53000    0   26  343.60000  220.53000  35.8%     -    0s

     0     0  220.53000    0   22  343.60000  220.53000  35.8%     -    0s

H    0     0                     297.3200000  220.87313  25.7%     -    0s

H    0     0                     292.9700000  220.87313  24.6%     -    0s

     0     0  222.34003    0   40  292.97000  222.34003  24.1%     -    0s

     0     0  222.94563    0   40  292.97000  222.94563  23.9%     -    0s

     0     0  222.94563    0   40  292.97000  222.94563  23.9%     -    0s

     0     0  222.94563    0   22  292.97000  222.94563  23.9%     -    0s

     0     0  222.94563    0   51  292.97000  222.94563  23.9%     -    0s

     0     0  222.94563    0   61  292.97000  222.94563  23.9%     -    0s

     0     0  222.94563    0   57  292.97000  222.94563  23.9%     -    0s

H    0     0                     275.4700000  222.94563  19.1%     -    0s

     0     0  222.94563    0   45  275.47000  222.94563  19.1%     -    0s

     0     0  222.94563    0   38  275.47000  222.94563  19.1%     -    0s

     0     0  222.94563    0   42  275.47000  222.94563  19.1%     -    0s

H    0     0                     274.5000000  222.94563  18.8%     -    0s

H    0     0                     263.6500000  222.94563  15.4%     -    0s

     0     0  222.94563    0   59  263.65000  222.94563  15.4%     -    0s

     0     0  223.12987    0   59  263.65000  223.12987  15.4%     -    0s

     0     0  223.12987    0   39  263.65000  223.12987  15.4%     -    0s

     0     0  223.12987    0   57  263.65000  223.12987  15.4%     -    0s

     0     0  223.12987    0   52  263.65000  223.12987  15.4%     -    0s

     0     0  223.12987    0   45  263.65000  223.12987  15.4%     -    0s

     0     0  223.12987    0   68  263.65000  223.12987  15.4%     -    0s

     0     0  225.49753    0   80  263.65000  225.49753  14.5%     -    0s

     0     0  225.49753    0   80  263.65000  225.49753  14.5%     -    1s

     0     2  225.49753    0   80  263.65000  225.49753  14.5%     -    1s



Cutting planes:

  Learned: 12

  Gomory: 9

  Cover: 3

  Implied bound: 23

  Projected implied bound: 15

  Clique: 1

  MIR: 9

  StrongCG: 2

  Flow cover: 69

  GUB cover: 3

  Zero half: 68

  RLT: 56

  Relax-and-lift: 36



Explored 929 nodes (13570 simplex iterations) in 1.24 seconds (1.13 work units)

Thread count was 20 (of 20 available processors)



Solution count 9: 263.65 274.5 275.47 ... 385.28



Optimal solution found (tolerance 1.00e-04)

Best objective 2.636500000000e+02, best bound 2.636500000000e+02, gap 0.0000%



AMPL MP initial flat model has 442 variables (0 integer, 413 binary);

Objectives: 1 quadratic; 

Constraints:  363 linear; 7 quadratic;



AMPL MP final model has 442 variables (0 integer, 413 binary);

Objectives: 1 quadratic; 

Constraints:  363 linear; 7 quadratic;





-----RESULTS INFO-----
running_time:  1.25
TC.best_bound:  263.65
TC:  263.65
MIP Gap (%):  0
=== Vehicle Routes ===
Vehicle 1: 0 → 1
Vehicle 1: 1 → 10
Vehicle 1: 2 → 18
Vehicle 1: 3 → 14
Vehicle 1: 10 → 3
Vehicle 1: 14 → 2
Vehicle 2: 0 → 4
Vehicle 2: 4 → 18
Vehicle 3: 0 → 18

=== Full Vehicle Routes ===
Vehicle 1: 0 → 1 → 10 → 3 → 14 → 2 → 0 (87<100)
Vehicle 2: 0 → 4 → 0 (14<100)
Vehicle 3: 0 → 0 (0<100)
Arc used by MRT line: y variables:
Customer assigment to PL: u variables:
5 10
6 14
7 14
8 10
Node is served by regular vehicle: g variables:
1
2
3
4
10
14
Customer assigment to Home delivery: gm variables:
1
2
3
4
Node total demands: ntd variables:
1 2 1
2 2 1
3 21 1
4 14 1
7 0 0
8 0 0
15 0 0
16 0 0
17 0 0
9 0 0
10 22 1
11 0 0
12 0 0
13 0 0
14 40 1
Customer's demand delivered to PL: l variables:
5
6
7
8
Lockers load <= capacity:
0 <= 90
0 <= 85
0 <= 96
0 <= 78
22 <= 83
0 <= 95
0 <= 85
0 <= 83
40 <= 91
